PARAMETER_FILE = even/LKH_uncomplete_graph/x5/seg/par/random45.par
PROBLEM_FILE = even/LKH_uncomplete_graph/x5/seg/mat/random45.tsp
Successes/Runs = 0/10
Cost.min = 526, Cost.avg = 526.00, Cost.max = 526
Gap.min = 0.0000%, Gap.avg = 0.0000%, Gap.max = 0.0000%
Trials.min = 1000, Trials.avg = 1000.0, Trials.max = 1000
Time.min = 0.05 sec., Time.avg = 0.07 sec., Time.max = 0.09 sec.
Time.total = 0.70 sec.
请按任意键继续. . . 
